(set-logic UF)
(declare-sort Set 0)
(declare-sort Elem 0)
(declare-fun member (Elem Set) Bool)
(declare-fun subset (Set Set) Bool)
(declare-fun seteq (Set Set) Bool)
(declare-fun union (Set Set) Set)
(declare-fun intersection (Set Set) Set)
(declare-fun difference (Set Set) Set)
(declare-fun a () Set)
(declare-fun b () Set)
(declare-fun c () Set)
(assert (not (member (choice ((?x Elem)) (not (or (not (member ?x (union (difference c a) (difference c b)))) (member ?x (difference c (intersection a b)))))) (difference c (intersection a b)))))
(assert (not (not (and (member (choice ((?x Elem)) (not (or (not (member ?x (union (difference c a) (difference c b)))) (member ?x (difference c (intersection a b)))))) c) (not (member (choice ((?x Elem)) (not (or (not (member ?x (union (difference c a) (difference c b)))) (member ?x (difference c (intersection a b)))))) (intersection a b)))))))
(assert (not (not (= (member (choice ((?x Elem)) (not (or (not (member ?x (union (difference c a) (difference c b)))) (member ?x (difference c (intersection a b)))))) (difference c (intersection a b))) (and (member (choice ((?x Elem)) (not (or (not (member ?x (union (difference c a) (difference c b)))) (member ?x (difference c (intersection a b)))))) c) (not (member (choice ((?x Elem)) (not (or (not (member ?x (union (difference c a) (difference c b)))) (member ?x (difference c (intersection a b)))))) (intersection a b))))))))
(assert (or (not (= (member (choice ((?x Elem)) (not (or (not (member ?x (union (difference c a) (difference c b)))) (member ?x (difference c (intersection a b)))))) (difference c (intersection a b))) (and (member (choice ((?x Elem)) (not (or (not (member ?x (union (difference c a) (difference c b)))) (member ?x (difference c (intersection a b)))))) c) (not (member (choice ((?x Elem)) (not (or (not (member ?x (union (difference c a) (difference c b)))) (member ?x (difference c (intersection a b)))))) (intersection a b)))))) (member (choice ((?x Elem)) (not (or (not (member ?x (union (difference c a) (difference c b)))) (member ?x (difference c (intersection a b)))))) (difference c (intersection a b))) (not (and (member (choice ((?x Elem)) (not (or (not (member ?x (union (difference c a) (difference c b)))) (member ?x (difference c (intersection a b)))))) c) (not (member (choice ((?x Elem)) (not (or (not (member ?x (union (difference c a) (difference c b)))) (member ?x (difference c (intersection a b)))))) (intersection a b)))))))
(check-sat)
(exit)
